[[94, 93, 92, 91, 82, 83, 73, 84, 85, 76, 75, 74, 68, 67, 66, 59, 58, 49], [57, 56, 65, 64, 55, 46, 47, 37, 38, 39, 48, 40, 41, 32, 31, 30, 29, 28, 19, 21, 22], [20, 13, 12, 11, 10, 2, 3, 4, 14, 5, 6, 7, 8, 9, 18, 17, 16, 15], [23, 24, 25, 26, 27, 35, 36, 44, 34, 43, 33, 42, 50, 51, 60, 52, 53, 45, 54], [63, 62, 61, 72, 71, 81, 80, 70, 69, 78, 77, 79, 87, 88, 89, 90, 99, 98, 97, 96, 86, 95]]